(set-logic QF_UF)
(declare-fun A0 () Bool)
(declare-fun A1 () Bool)
(declare-fun A2 () Bool)
(declare-fun A3 () Bool)
(declare-fun A4 () Bool)
(declare-fun A5 () Bool)
(declare-fun A6 () Bool)
(declare-fun A7 () Bool)
(declare-fun A8 () Bool)
(declare-fun A10 () Bool)
(declare-fun A11 () Bool)
(declare-fun A12 () Bool)
(declare-fun A13 () Bool)
(declare-fun A14 () Bool)
(declare-fun A16 () Bool)
(declare-fun A17 () Bool)
(declare-fun A18 () Bool)
(declare-fun A19 () Bool)
(declare-fun A20 () Bool)
(declare-fun A21 () Bool)
(declare-fun A23 () Bool)
(declare-fun A24 () Bool)
(assert (let ((.def_0 (not A6))) (let ((.def_1 (and .def_0 A19))) (let ((.def_2 (not .def_1))) (let ((.def_3 (not A17))) (let ((.def_4 (or .def_3 A21))) (let ((.def_5 (not .def_4))) (let ((.def_6 (or .def_5 .def_2))) (let ((.def_7 (not .def_6))) (let ((.def_8 (not A19))) (let ((.def_9 (and .def_8 A23))) (let ((.def_10 (not .def_9))) (let ((.def_11 (and A0 .def_3))) (let ((.def_12 (not .def_11))) (let ((.def_13 (= .def_12 .def_10))) (let ((.def_14 (not .def_13))) (let ((.def_15 (or .def_14 .def_7))) (let ((.def_16 (not .def_15))) (let ((.def_17 (not A4))) (let ((.def_18 (= A20 .def_17))) (let ((.def_19 (not .def_18))) (let ((.def_20 (not A10))) (let ((.def_21 (= .def_20 A12))) (let ((.def_22 (not .def_21))) (let ((.def_23 (= .def_22 .def_19))) (let ((.def_24 (not A0))) (let ((.def_25 (and .def_24 .def_8))) (let ((.def_26 (or A4 A24))) (let ((.def_27 (or .def_26 .def_25))) (let ((.def_28 (and .def_27 .def_23))) (let ((.def_29 (or .def_28 .def_16))) (let ((.def_30 (not .def_29))) (let ((.def_31 (or A5 .def_17))) (let ((.def_32 (not A20))) (let ((.def_33 (or .def_32 .def_17))) (let ((.def_34 (not .def_33))) (let ((.def_35 (or .def_34 .def_31))) (let ((.def_36 (= .def_8 A16))) (let ((.def_37 (not .def_36))) (let ((.def_38 (or A0 A5))) (let ((.def_39 (or .def_38 .def_37))) (let ((.def_40 (or .def_39 .def_35))) (let ((.def_41 (not .def_40))) (let ((.def_42 (or A20 A13))) (let ((.def_43 (not .def_42))) (let ((.def_44 (not A1))) (let ((.def_45 (and .def_3 .def_44))) (let ((.def_46 (and .def_45 .def_43))) (let ((.def_47 (not .def_46))) (let ((.def_48 (not A23))) (let ((.def_49 (and A14 .def_48))) (let ((.def_50 (not A3))) (let ((.def_51 (or .def_50 .def_24))) (let ((.def_52 (or .def_51 .def_49))) (let ((.def_53 (not .def_52))) (let ((.def_54 (or .def_53 .def_47))) (let ((.def_55 (or .def_54 .def_41))) (let ((.def_56 (not .def_55))) (let ((.def_57 (or .def_56 .def_30))) (let ((.def_58 (not A16))) (let ((.def_59 (or .def_58 A12))) (let ((.def_60 (not A21))) (let ((.def_61 (and .def_60 A12))) (let ((.def_62 (not .def_61))) (let ((.def_63 (= .def_62 .def_59))) (let ((.def_64 (not .def_63))) (let ((.def_65 (not A2))) (let ((.def_66 (and .def_65 A18))) (let ((.def_67 (not .def_66))) (let ((.def_68 (not A24))) (let ((.def_69 (and A1 .def_68))) (let ((.def_70 (not .def_69))) (let ((.def_71 (= .def_70 .def_67))) (let ((.def_72 (= .def_71 .def_64))) (let ((.def_73 (not .def_72))) (let ((.def_74 (or A20 .def_65))) (let ((.def_75 (and .def_50 .def_48))) (let ((.def_76 (or .def_75 .def_74))) (let ((.def_77 (not .def_76))) (let ((.def_78 (not A8))) (let ((.def_79 (and .def_3 .def_78))) (let ((.def_80 (not .def_79))) (let ((.def_81 (not A11))) (let ((.def_82 (or A6 .def_81))) (let ((.def_83 (and .def_82 .def_80))) (let ((.def_84 (not .def_83))) (let ((.def_85 (and .def_84 .def_77))) (let ((.def_86 (or .def_85 .def_73))) (let ((.def_87 (not .def_86))) (let ((.def_88 (not A5))) (let ((.def_89 (and A23 .def_88))) (let ((.def_90 (= .def_3 A24))) (let ((.def_91 (not .def_90))) (let ((.def_92 (and .def_91 .def_89))) (let ((.def_93 (not A18))) (let ((.def_94 (and .def_93 .def_0))) (let ((.def_95 (not .def_94))) (let ((.def_96 (or A11 A13))) (let ((.def_97 (not .def_96))) (let ((.def_98 (and .def_97 .def_95))) (let ((.def_99 (not .def_98))) (let ((.def_100 (or .def_99 .def_92))) (let ((.def_101 (not .def_100))) (let ((.def_102 (and A24 A20))) (let ((.def_103 (and A24 .def_68))) (let ((.def_104 (not .def_103))) (let ((.def_105 (and .def_104 .def_102))) (let ((.def_106 (not A7))) (let ((.def_107 (or .def_106 A24))) (let ((.def_108 (not A12))) (let ((.def_109 (or .def_108 A7))) (let ((.def_110 (not .def_109))) (let ((.def_111 (and .def_110 .def_107))) (let ((.def_112 (or .def_111 .def_105))) (let ((.def_113 (not .def_112))) (let ((.def_114 (or .def_113 .def_101))) (let ((.def_115 (or .def_114 .def_87))) (let ((.def_116 (not .def_115))) (let ((.def_117 (and .def_116 .def_57))) .def_117)))))))))))))))))))))))))))))))))))))))))))))))))))))))))))))))))))))))))))))))))))))))))))))))))))))))))))))))))))))))
(check-sat)
